N = 7;
H = 5;
T = 2;

avail = array3d(1..N, 1..H, 1..T, [3, 2, 6, 7, 9, 1, 0, 5, 8, 6, 0, 0, 1, 6, 4, 10, 4, 2, 0, 9, 9, 6, 9, 2, 3, 7, 5, 9, 5, 5, 3, 7, 10, 8, 4, 8, 6, 10, 5, 7, 2, 1, 6, 3, 5, 6, 9, 3, 3, 0, 2, 1, 1, 7, 5, 0, 0, 2, 1, 8, 1, 1, 2, 4, 5, 5, 7, 6, 3, 1]);

r = array2d(1..H, 1..T, [2, 1, 2, 0, 2, 2, 3, 1, 3, 1]);
